benchmarks_vrp/CMT5/no_cluster/CMT5_4.vrp
NAME: CMT5_4
TYPE: CVRP
COMMENT: 1291.29 - Cluster Nr.4
DIMENSION: 12
CAPACITY: 200
EDGE_WEIGHT_TYPE: EUC_2D
NODE_COORD_TYPE: TWOD_COORDS
NODE_COORD_SECTION: 
11 12 42
2 21 36
6 17 34
12 17 33
10 7 43
1 12 38
7 35 35
4 10 43
8 14 37
3 20 40
5 6 38
9 7 38
DEPOT_SECTION: 
7
-1
DEMAND_SECTION: 
3 12
8 11
1 5
6 3
5 16
7 0
11 21
9 28
10 27
4 9
12 41
2 19
EOF
