benchmarks_vrp/CMT5/no_cluster/CMT5_4.tour
NAME: CMT5_4 solution
TYPE: TOUR
TOUR_SECTION:
7 2 6 12 8 1 9 5 10 4 11 3 -1
-1
EOF